6 32 4 10
4 17 5 3 13 5 4 17 5 5 14 6 8 15 16 13 7 15 4 15 15 16 4 16 12 13 11 8 1 11 2 20 
2.54 3.21 7.19 5.61 14.97 4.49 8.4 7.04 6.8 2.57 1.48 10.61 13.31 10.96 12.19 14.1 12.61 9.92 1.23 10.53 7.96 15.05 2.77 9.32 9.86 6.2 15.19 7.95 6.72 9.86 14.62 14.81 
15.03 6.09 9.38 8.05 13.66 15.24 10.45 9.25 8.25 10.05 15.03 9.87 10.7 1.27 6.88 7.76 13.88 2.67 6.06 10.8 5.42 13.92 13.11 8.06 9.91 10.69 4.13 4.83 14.96 2.83 13.79 0.15 
2.68 10.09 10.89 3.76 13.38 13.15 10.46 8.38 10.17 14.48 12.11 10.21 14.04 7.21 5.3 2.65 2.99 11.04 0.75 8.43 2.83 0.47 2.43 11.2 11.66 4.14 11.37 7.22 12.8 11.87 0.54 6.99 
13.52 5.58 15.78 2.86 0.63 10.42 14.07 2.85 3.71 9.58 13.26 10.41 2.79 2.09 13.85 6.17 13.96 14.76 2.83 15.88 11.46 2.21 0.49 1.31 1.31 3.05 8.75 2.99 10.59 13.95 4.3 15.74 
8 8 8 8 8 8 8 8 8 8 8 8 8 8 8 8 8 8 8 8 8 8 8 8 8 8 8 8 8 8 8 8 
12.35 11.71 12.38 6.35 1.58 6.72 13.51 10.95 14.67 6.4 8.92 6.98 15.19 9.13 2.08 8.59 10.37 5.34 2.3 5.81 1.45 13.91 0.55 14.95 14.99 5.97 6.11 9.42 4.13 1.76 12.63 10.63 
1 1 1 1 1 1 1 1 1 1 1 1 1 1 1 1 1 1 1 1 1 1 1 1 1 1 1 1 1 1 1 1 
1 1 1 1 1 1 1 1 1 1 1 1 1 1 1 1 1 1 1 1 1 1 1 1 1 1 1 1 1 1 1 1 
1 1 1 1 1 1 1 1 1 1 1 1 1 1 1 1 1 1 1 1 1 1 1 1 1 1 1 1 1 1 1 1 
1 1 1 1 1 1 1 1 1 1 1 1 1 1 1 1 1 1 1 1 1 1 1 1 1 1 1 1 1 1 1 1 
1 1 1 1 1 1 1 1 1 1 1 1 1 1 1 1 1 1 1 1 1 1 1 1 1 1 1 1 1 1 1 1 
1 1 1 1 1 1 1 1 1 1 1 1 1 1 1 1 1 1 1 1 1 1 1 1 1 1 1 1 1 1 1 1 
0.01 0.01 0.01 0.01 0.01 0.01 0.01 0.01 0.01 0.01 0.01 0.01 0.01 0.01 0.01 0.01 0.01 0.01 0.01 0.01 0.01 0.01 0.01 0.01 0.01 0.01 0.01 0.01 0.01 0.01 0.01 0.01 
0.02 0.02 0.02 0.02 0.02 0.02 0.02 0.02 0.02 0.02 0.02 0.02 0.02 0.02 0.02 0.02 0.02 0.02 0.02 0.02 0.02 0.02 0.02 0.02 0.02 0.02 0.02 0.02 0.02 0.02 0.02 0.02 
0.03 0.03 0.03 0.03 0.03 0.03 0.03 0.03 0.03 0.03 0.03 0.03 0.03 0.03 0.03 0.03 0.03 0.03 0.03 0.03 0.03 0.03 0.03 0.03 0.03 0.03 0.03 0.03 0.03 0.03 0.03 0.03 
0.04 0.04 0.04 0.04 0.04 0.04 0.04 0.04 0.04 0.04 0.04 0.04 0.04 0.04 0.04 0.04 0.04 0.04 0.04 0.04 0.04 0.04 0.04 0.04 0.04 0.04 0.04 0.04 0.04 0.04 0.04 0.04 
0.05 0.05 0.05 0.05 0.05 0.05 0.05 0.05 0.05 0.05 0.05 0.05 0.05 0.05 0.05 0.05 0.05 0.05 0.05 0.05 0.05 0.05 0.05 0.05 0.05 0.05 0.05 0.05 0.05 0.05 0.05 0.05 
1 1 1 1 1 1 1 1 1 1 1 1 1 1 1 1 1 1 1 1 1 1 1 1 1 1 1 1 1 1 1 1 
